states  = {s1,s2,s3,s4,s5,s6,s7,s8,s9,s10,s11};
actions = {N,E,S,W};

P = array3d(states,actions,states,[
    %s1   s2   s3   s4   s5   s6   s7   s8   s9   s10  s11
    0.1, 0.8, 0.0, 0.1, 0.0, 0.0, 0.0, 0.0, 0.0, 0.0, 0.0,
    0.1, 0.1, 0.0, 0.4, 0.0, 0.0, 0.0, 0.0, 0.0, 0.0, 0.0,
    0.9, 0.0, 0.0, 0.1, 0.0, 0.0, 0.0, 0.0, 0.0, 0.0, 0.0,
    0.9, 0.0, 0.1, 0.0, 0.0, 0.0, 0.0, 0.0, 0.0, 0.0, 0.0,

    %s1   s2   s3   s4   s5   s6   s7   s8   s9   s10  s11
    0.0, 0.2, 0.8, 0.0, 0.0, 0.0, 0.0, 0.0, 0.0, 0.0, 0.0,
    0.1, 0.8, 0.1, 0.0, 0.0, 0.0, 0.0, 0.0, 0.0, 0.0, 0.0,
    0.9, 0.2, 0.0, 0.0, 0.0, 0.0, 0.0, 0.0, 0.0, 0.0, 0.0,
    0.1, 0.8, 0.1, 0.0, 0.0, 0.0, 0.0, 0.0, 0.0, 0.0, 0.0,

    %s1   s2   s3   s4   s5   s6   s7   s8   s9   s10  s11
    0.0, 0.0, 0.9, 0.0, 0.1, 0.0, 0.0, 0.0, 0.0, 0.0, 0.0,
    0.0, 0.1, 0.1, 0.0, 0.8, 0.0, 0.0, 0.0, 0.0, 0.0, 0.0,
    0.0, 0.8, 0.1, 0.0, 0.0, 0.0, 0.0, 0.0, 0.0, 0.0, 0.0,
    0.0, 0.1, 0.9, 0.0, 0.0, 0.0, 0.0, 0.0, 0.0, 0.0, 0.0,

    %s1   s2   s3   s4   s5   s6   s7   s8   s9   s10  s11
    0.1, 0.0, 0.0, 0.8, 0.0, 0.1, 0.0, 0.0, 0.0, 0.0, 0.0,
    0.0, 0.0, 0.0, 0.2, 0.0, 0.8, 0.0, 0.0, 0.0, 0.0, 0.0,
    0.1, 0.0, 0.0, 0.8, 0.0, 0.1, 0.0, 0.0, 0.0, 0.0, 0.0,
    0.8, 0.0, 0.0, 0.2, 0.0, 0.0, 0.0, 0.0, 0.0, 0.0, 0.0,

    %s1   s2   s3   s4   s5   s6   s7   s8   s9   s10  s11
    0.0, 0.0, 0.1, 0.0, 0.8, 0.0, 0.0, 0.1, 0.0, 0.0, 0.0,
    0.0, 0.0, 0.0, 0.0, 0.2, 0.0, 0.0, 0.8, 0.0, 0.0, 0.0,
    0.0, 0.0, 0.1, 0.0, 0.8, 0.0, 0.0, 0.1, 0.0, 0.0, 0.0,
    0.0, 0.0, 0.8, 0.0, 0.2, 0.0, 0.0, 0.0, 0.0, 0.0, 0.0,

    %s1   s2   s3   s4   s5   s6   s7   s8   s9   s10  s11
    0.0, 0.0, 0.0, 0.1, 0.0, 0.0, 0.8, 0.0, 0.1, 0.0, 0.0,
    0.0, 0.0, 0.0, 0.0, 0.0, 0.1, 0.1, 0.0, 0.8, 0.0, 0.0,
    0.0, 0.0, 0.0, 0.1, 0.0, 0.8, 0.0, 0.0, 0.1, 0.0, 0.0,
    0.0, 0.0, 0.0, 0.8, 0.0, 0.1, 0.1, 0.0, 0.0, 0.0, 0.0,

    %s1   s2   s3   s4   s5   s6   s7   s8   s9   s10  s11
    0.0, 0.0, 0.0, 0.0, 0.0, 0.0, 0.1, 0.8, 0.0, 0.1, 0.0,
    0.0, 0.0, 0.0, 0.0, 0.0, 0.1, 0.0, 0.1, 0.0, 0.8, 0.0,
    0.0, 0.0, 0.0, 0.0, 0.0, 0.8, 0.1, 0.0, 0.0, 0.1, 0.0,
    0.0, 0.0, 0.0, 0.0, 0.0, 0.1, 0.8, 0.1, 0.0, 0.0, 0.0,

    %s1   s2   s3   s4   s5   s6   s7   s8   s9   s10  s11
    0.0, 0.0, 0.0, 0.0, 0.1, 0.0, 0.0, 0.8, 0.0, 0.0, 0.1,
    0.0, 0.0, 0.0, 0.0, 0.0, 0.0, 0.1, 0.1, 0.0, 0.0, 0.8,
    0.0, 0.0, 0.0, 0.0, 0.0, 0.0, 0.8, 0.1, 0.0, 0.0, 0.1,
    0.0, 0.0, 0.0, 0.0, 0.8, 0.0, 0.1, 0.1, 0.0, 0.0, 0.0,

    %s1   s2   s3   s4   s5   s6   s7   s8   s9  s10  s11
    0.0, 0.0, 0.0, 0.0, 0.0, 0.1, 0.0, 0.0, 0.1, 0.8, 0.0,
    0.0, 0.0, 0.0, 0.0, 0.0, 0.0, 0.0, 0.0, 0.9, 0.1, 0.0,
    0.0, 0.0, 0.0, 0.0, 0.0, 0.1, 0.0, 0.0, 0.9, 0.0, 0.0,
    0.0, 0.0, 0.0, 0.0, 0.0, 0.8, 0.0, 0.0, 0.1, 0.1, 0.0,

    %s1   s2   s3   s4   s5   s6   s7   s8   s9  s10  s11
    0.0, 0.0, 0.0, 0.0, 0.0, 0.0, 0.0, 0.0, 0.0, 0.0, 0.0,
    0.0, 0.0, 0.0, 0.0, 0.0, 0.0, 0.0, 0.0, 0.0, 0.0, 0.0,
    0.0, 0.0, 0.0, 0.0, 0.0, 0.0, 0.0, 0.0, 0.0, 0.0, 0.0,
    0.0, 0.0, 0.0, 0.0, 0.0, 0.0, 0.0, 0.0, 0.0, 0.0, 0.0,

    %s1   s2   s3   s4   s5   s6   s7   s8   s9  s10  s11
    0.0, 0.0, 0.0, 0.0, 0.0, 0.0, 0.0, 0.0, 0.0, 0.0, 0.0,
    0.0, 0.0, 0.0, 0.0, 0.0, 0.0, 0.0, 0.0, 0.0, 0.0, 0.0,
    0.0, 0.0, 0.0, 0.0, 0.0, 0.0, 0.0, 0.0, 0.0, 0.0, 0.0,
    0.0, 0.0, 0.0, 0.0, 0.0, 0.0, 0.0, 0.0, 0.0, 0.0, 0.0
]);

R = array3d(states,actions,states,[
    %s1   s2   s3   s4   s5   s6   s7   s8   s9   s10  s11
    -1.7,-1.7, 0.0,-1.7, 0.0, 0.0, 0.0, 0.0, 0.0, 0.0, 0.0,
    -1.7,-1.7, 0.0, 0.4, 0.0, 0.0, 0.0, 0.0, 0.0, 0.0, 0.0,
    -1.7, 0.0, 0.0,-1.7, 0.0, 0.0, 0.0, 0.0, 0.0, 0.0, 0.0,
    -1.7, 0.0,-1.7, 0.0, 0.0, 0.0, 0.0, 0.0, 0.0, 0.0, 0.0,

    %s1   s2   s3   s4   s5   s6   s7   s8   s9   s10  s11
     0.0,-1.7,-1.7, 0.0, 0.0, 0.0, 0.0, 0.0, 0.0, 0.0, 0.0,
    -1.7,-1.7,-1.7, 0.0, 0.0, 0.0, 0.0, 0.0, 0.0, 0.0, 0.0,
    -1.7,-1.7, 0.0, 0.0, 0.0, 0.0, 0.0, 0.0, 0.0, 0.0, 0.0,
    -1.7,-1.7,-1.7, 0.0, 0.0, 0.0, 0.0, 0.0, 0.0, 0.0, 0.0,

    %s1   s2   s3   s4   s5   s6   s7   s8   s9   s10  s11
     0.0, 0.0,-1.7, 0.0,-1.7, 0.0, 0.0, 0.0, 0.0, 0.0, 0.0,
     0.0,-1.7,-1.7, 0.0,-1.7, 0.0, 0.0, 0.0, 0.0, 0.0, 0.0,
     0.0,-1.7,-1.7, 0.0, 0.0, 0.0, 0.0, 0.0, 0.0, 0.0, 0.0,
     0.0,-1.7,-1.7, 0.0, 0.0, 0.0, 0.0, 0.0, 0.0, 0.0, 0.0,

    %s1   s2   s3   s4   s5   s6   s7   s8   s9   s10  s11
    -1.7, 0.0, 0.0,-1.7, 0.0,-1.7, 0.0, 0.0, 0.0, 0.0, 0.0,
     0.0, 0.0, 0.0,-1.7, 0.0,-1.7, 0.0, 0.0, 0.0, 0.0, 0.0,
    -1.7, 0.0, 0.0,-1.7, 0.0,-1.7, 0.0, 0.0, 0.0, 0.0, 0.0,
    -1.7, 0.0, 0.0,-1.7, 0.0, 0.0, 0.0, 0.0, 0.0, 0.0, 0.0,

    %s1   s2   s3   s4   s5   s6   s7   s8   s9   s10  s11
     0.0, 0.0,-1.7, 0.0,-1.7, 0.0, 0.0,-1.7, 0.0, 0.0, 0.0,
     0.0, 0.0, 0.0, 0.0,-1.7, 0.0, 0.0,-1.7, 0.0, 0.0, 0.0,
     0.0, 0.0,-1.7, 0.0,-1.7, 0.0, 0.0,-1.7, 0.0, 0.0, 0.0,
     0.0, 0.0,-1.7, 0.0,-1.7, 0.0, 0.0, 0.0, 0.0, 0.0, 0.0,

    %s1   s2   s3   s4   s5   s6   s7   s8   s9   s10  s11
     0.0, 0.0, 0.0,-1.7, 0.0, 0.0,-1.7, 0.0,-1.7, 0.0, 0.0,
     0.0, 0.0, 0.0, 0.0, 0.0,-1.7,-1.7, 0.0,-1.7, 0.0, 0.0,
     0.0, 0.0, 0.0,-1.7, 0.0,-1.7, 0.0, 0.0,-1.7, 0.0, 0.0,
     0.0, 0.0, 0.0,-1.7, 0.0,-1.7,-1.7, 0.0, 0.0, 0.0, 0.0,

    %s1   s2   s3   s4   s5   s6   s7   s8   s9   s10  s11f
     0.0, 0.0, 0.0, 0.0, 0.0, 0.0,-1.7,-1.7, 0.0,-1.0, 0.0,
     0.0, 0.0, 0.0, 0.0, 0.0,-1.7, 0.0,-1.7, 0.0,-1.0, 0.0,
     0.0, 0.0, 0.0, 0.0, 0.0,-1.7,-1.7, 0.0, 0.0,-1.0, 0.0,
     0.0, 0.0, 0.0, 0.0, 0.0,-1.7,-1.7,-1.7, 0.0, 0.0, 0.0,

    %s1   s2   s3   s4   s5   s6   s7   s8   s9   s10  s11
     0.0, 0.0, 0.0, 0.0,-1.7, 0.0, 0.0,-1.7, 0.0, 0.0,+1.0,
     0.0, 0.0, 0.0, 0.0, 0.0, 0.0,-1.7,-1.7, 0.0, 0.0,+1.0,
     0.0, 0.0, 0.0, 0.0, 0.0, 0.0,-1.7,-1.7, 0.0, 0.0,+1.0,
     0.0, 0.0, 0.0, 0.0,-1.7, 0.0,-1.7,-1.7, 0.0, 0.0, 0.0,

    %s1   s2   s3   s4   s5   s6   s7   s8   s9  s10  s11
     0.0, 0.0, 0.0, 0.0, 0.0,-1.7, 0.0, 0.0,-1.7,-1.0, 0.0,
     0.0, 0.0, 0.0, 0.0, 0.0, 0.0, 0.0, 0.0,-1.7,-1.0, 0.0,
     0.0, 0.0, 0.0, 0.0, 0.0,-1.7, 0.0, 0.0,-1.7, 0.0, 0.0,
     0.0, 0.0, 0.0, 0.0, 0.0,-1.7, 0.0, 0.0,-1.7,-1.0, 0.0,

    %s1   s2   s3   s4   s5   s6   s7   s8   s9  s10  s11
     0.0, 0.0, 0.0, 0.0, 0.0, 0.0, 0.0, 0.0, 0.0, 0.0, 0.0,
     0.0, 0.0, 0.0, 0.0, 0.0, 0.0, 0.0, 0.0, 0.0, 0.0, 0.0,
     0.0, 0.0, 0.0, 0.0, 0.0, 0.0, 0.0, 0.0, 0.0, 0.0, 0.0,
     0.0, 0.0, 0.0, 0.0, 0.0, 0.0, 0.0, 0.0, 0.0, 0.0, 0.0,

    %s1   s2   s3   s4   s5   s6   s7   s8   s9  s10  s11
     0.0, 0.0, 0.0, 0.0, 0.0, 0.0, 0.0, 0.0, 0.0, 0.0, 0.0,
     0.0, 0.0, 0.0, 0.0, 0.0, 0.0, 0.0, 0.0, 0.0, 0.0, 0.0,
     0.0, 0.0, 0.0, 0.0, 0.0, 0.0, 0.0, 0.0, 0.0, 0.0, 0.0,
     0.0, 0.0, 0.0, 0.0, 0.0, 0.0, 0.0, 0.0, 0.0, 0.0, 0.0
]);

g = 1.0;