maxV = 9;
maxT = 6;
M =
[|30, 0.35, 0.00, 0.35, 0.00, 0.00, 0.00, 0.00, 0.00
 |23, 0.31, 0.23, 0.00, 0.23, 0.00, 0.00, 0.00, 0.00
 | 0, 0.35, 0.30, 0.00, 0.00, 0.35, 0.00, 0.00, 0.00
 |23, 0.00, 0.00, 0.31, 0.23, 0.00, 0.23, 0.00, 0.00
 | 0, 0.18, 0.00, 0.18, 0.28, 0.18, 0.00, 0.18, 0.00
 | 0, 0.00, 0.23, 0.00, 0.23, 0.31, 0.00, 0.00, 0.23
 | 0, 0.00, 0.00, 0.35, 0.00, 0.00, 0.30, 0.35, 0.00
 | 0, 0.00, 0.00, 0.00, 0.23, 0.00, 0.23, 0.31, 0.23
 | 0, 0.00, 0.00, 0.00, 0.00, 0.35, 0.00, 0.35, 0.30|];

pod = [0.3,0.3,0.3,0.3,0.5,0.3,0.3,0.3,0.3];

searcher = 1;
mobile = 5;